p cnf 34 106
3 1 0
3 2 0
-1 -2 -3 0
5 4 0
5 4 0
-4 -5 0
7 -5 0
7 -6 0
5 6 -7 0
-9 -10 -11 0
9 10 -11 0
-9 10 11 0
9 -10 11 0
-11 -12 -13 0
11 12 -13 0
-11 12 13 0
11 -12 13 0
14 8 0
14 -13 0
-8 13 -14 0
7 14 -15 0
-7 -14 -15 0
7 -14 15 0
-7 14 15 0
-16 3 0
-16 15 0
-3 -15 16 0
6 5 -17 0
-6 -5 -17 0
6 -5 17 0
-6 5 17 0
18 16 0
18 -17 0
-16 17 -18 0
-20 -10 0
-20 19 0
10 -19 20 0
-20 -8 -21 0
20 8 -21 0
-20 8 21 0
20 -8 21 0
-21 -4 -22 0
21 4 -22 0
-21 4 22 0
21 -4 22 0
-23 -9 0
-23 -22 0
9 22 23 0
-24 -10 0
-24 10 0
23 24 -25 0
-23 -24 -25 0
23 -24 25 0
-23 24 25 0
-26 -22 0
-26 8 0
22 -8 26 0
-28 6 0
-28 -19 0
-6 19 28 0
-29 -6 0
-29 -28 0
6 28 29 0
30 -27 0
30 29 0
27 -29 -30 0
31 30 0
31 -27 0
-30 27 -31 0
26 -31 -32 0
-26 31 -32 0
26 31 32 0
-26 -31 32 0
-25 -32 -33 0
25 32 -33 0
-25 32 33 0
25 -32 33 0
-18 33 -34 0
18 -33 -34 0
-18 -33 34 0
18 33 34 0
-18 15 24 13 29 0
24 -20 0
14 -2 -13 -21 0
24 -15 -10 23 8 11 0
34 -15 0
8 -2 -14 9 -18 0
-12 24 -2 -11 0
9 12 1 0
32 -21 0
-15 32 21 -14 0
-19 9 0
-22 -5 7 24 0
-3 13 -1 33 15 0
-7 6 -4 0
-25 3 0
-26 32 0
11 6 13 34 0
-9 -28 -34 19 0
1 16 -9 -6 31 -4 0
-6 -5 0
-13 -12 32 -27 0
-4 18 6 15 -7 0
-14 -23 -19 -31 -11 3 0
28 30 -15 -13 -10 9 0
34 0
